GLPSOL--GLPK LP/MIP Solver 5.0
Parameter(s) specified in the command line:
 --lp ../modeles/4_459.lp --log 4_459.log
Reading problem data from '../modeles/4_459.lp'...
1853 rows, 3680 columns, 12872 non-zeros
1836 integer variables, all of which are binary
5543 lines were read
GLPK Integer Optimizer 5.0
1853 rows, 3680 columns, 12872 non-zeros
1836 integer variables, all of which are binary
Preprocessing...
1816 constraint coefficient(s) were reduced
1853 rows, 3676 columns, 12868 non-zeros
1836 integer variables, all of which are binary
Scaling...
 A: min|aij| =  1.899e-05  max|aij| =  4.000e+00  ratio =  2.107e+05
GM: min|aij| =  4.668e-02  max|aij| =  2.142e+01  ratio =  4.590e+02
EQ: min|aij| =  2.179e-03  max|aij| =  1.000e+00  ratio =  4.590e+02
2N: min|aij| =  1.953e-03  max|aij| =  1.770e+00  ratio =  9.063e+02
Constructing initial basis...
Size of triangular part is 1853
Solving LP relaxation...
GLPK Simplex Optimizer 5.0
1853 rows, 3676 columns, 12868 non-zeros
      0: obj =   8.000000000e+00 inf =   1.950e+01 (9)
     99: obj =   4.999644010e-01 inf =   0.000e+00 (0)
*   317: obj =  -1.999966556e+00 inf =   5.977e-15 (0)
OPTIMAL LP SOLUTION FOUND
Integer optimization begins...
Long-step dual simplex will be used
+   317: mip =     not found yet >=              -inf        (1; 0)
+   580: >>>>>  -1.999966556e+00 >=  -1.999966556e+00 < 0.1% (263; 0)
+   580: mip =  -1.999966556e+00 >=     tree is empty   0.0% (0; 525)
INTEGER OPTIMAL SOLUTION FOUND
Time used:   0.8 secs
Memory used: 5.4 Mb (5681102 bytes)
